[[51, 17, 76, 26, 67, 7, 8, 46, 34, 52, 27, 13, 54, 19, 35, 53, 14, 59], [11, 66, 65, 38, 10, 31, 58, 72, 12, 40, 39, 9, 25, 55], [18, 50, 32, 44, 3, 24, 49, 16, 63, 23, 56, 41, 43, 42], [64, 22, 62, 73, 33, 2, 28, 74, 61, 21, 47], [69, 36, 71, 60, 70, 20, 37, 15, 57, 5, 29, 48, 45, 30, 4, 75, 68, 6]]